
Gurobi 6.0.4 (win64) logging started 06/18/15 20:05:01

Read LP format model from file E:\Eigene Dateien\Downloads\Michi shit\VRPTWMS2\instances\mip\fuel\N6-C_DV100-C_SV25_F5_6_No_1.lp
Reading time = 0.00 seconds
(null): 253 rows, 134 columns, 987 nonzeros
Optimize a model with 253 rows, 134 columns and 987 nonzeros
Model has 252 quadratic constraints
Coefficient statistics:
  Matrix range    [1e+00, 1e+06]
  Objective range [2e+04, 1e+07]
  Bounds range    [1e+00, 1e+06]
  RHS range       [1e+00, 1e+06]
Presolve removed 39 rows and 20 columns
Presolve time: 0.02s
Presolved: 639 rows, 338 columns, 2910 nonzeros
Variable types: 201 continuous, 137 integer (105 binary)
Found heuristic solution: objective 6.211680e+07

Root relaxation: objective 1.103990e+07, 61 iterations, 0.00 seconds

    Nodes    |    Current Node    |     Objective Bounds      |     Work
 Expl Unexpl |  Obj  Depth IntInf | Incumbent    BestBd   Gap | It/Node Time

     0     0 1.1040e+07    0   16 6.2117e+07 1.1040e+07  82.2%     -    0s
H    0     0                    4.164200e+07 1.1040e+07  73.5%     -    0s
     0     0 1.1159e+07    0   14 4.1642e+07 1.1159e+07  73.2%     -    0s
H    0     0                    3.154220e+07 1.1159e+07  64.6%     -    0s
     0     0 1.1165e+07    0   33 3.1542e+07 1.1165e+07  64.6%     -    0s
     0     0 1.1344e+07    0   54 3.1542e+07 1.1344e+07  64.0%     -    0s
     0     0 1.1800e+07    0   46 3.1542e+07 1.1800e+07  62.6%     -    0s
     0     0 1.1904e+07    0   52 3.1542e+07 1.1904e+07  62.3%     -    0s
     0     0 1.2007e+07    0   50 3.1542e+07 1.2007e+07  61.9%     -    0s
     0     0 1.2007e+07    0   51 3.1542e+07 1.2007e+07  61.9%     -    0s
     0     0 1.2007e+07    0   49 3.1542e+07 1.2007e+07  61.9%     -    0s
     0     0 1.2007e+07    0   51 3.1542e+07 1.2007e+07  61.9%     -    0s
     0     0 1.2007e+07    0   53 3.1542e+07 1.2007e+07  61.9%     -    0s
     0     0 1.2007e+07    0   47 3.1542e+07 1.2007e+07  61.9%     -    0s
     0     2 1.2007e+07    0   41 3.1542e+07 1.2007e+07  61.9%     -    0s
H  209    59                    3.150610e+07 2.1198e+07  32.7%  12.7    0s

Cutting planes:
  Learned: 1
  Gomory: 2
  Cover: 84
  Implied bound: 88
  Clique: 11
  MIR: 29
  GUB cover: 1
  Zero half: 1

Explored 1930 nodes (29426 simplex iterations) in 0.39 seconds
Thread count was 4 (of 4 available processors)

Optimal solution found (tolerance 1.00e-04)
Best objective 3.150610000000e+07, best bound 3.150610000000e+07, gap 0.0%
k_c1	939999.0
k_c2	40000.0
k_c3	120000.0
k_c4	1000000.0
k_c5	960000.0
k_c6	960000.0
k_dN	-0.0
o_1	0.0
o_2	0.0
o_3	-0.0
o_4	-0.0
o_5	0.0
o_6	0.0
p_1	0.0
p_2	0.0
p_3	-0.0
p_4	-0.0
p_5	0.0
p_6	-0.0
phi_c1	7480.0
phi_c2	5519.0
phi_c3	5981.0
phi_c4	31221.0
phi_c5	23522.0
phi_c6	20771.0
phi_dN	0.0
pi_c1	200000.0
pi_c2	200000.0
pi_c3	250000.0
pi_c4	250000.0
pi_c5	200000.0
pi_c6	250000.0
pi_dN	-0.0
tauD_c1	304400.0
tauD_c2	650000.0
tauD_c3	400000.0
tauD_c4	100000.0
tauD_c5	250000.0
tauD_c6	183825.0
tauD_d0	-0.0
tauD_dN	1000000.0
tauS_c1	824975.0
tauS_c2	899375.0
tauS_c3	897649.0
tauS_c4	849824.0
tauS_c5	839375.0
tauS_c6	875274.0
tauS_d0	-0.0
tauS_dN	0.0
x_c1_c3	1.0
x_c2_dN	1.0
x_c3_dN	1.0
x_c4_c6	1.0
x_c5_c2	1.0
x_c6_dN	1.0
x_d0_c1	1.0
x_d0_c4	1.0
x_d0_c5	1.0
